c PicoSAT SAT Solver Version 959
c Copyright (c) 2006 - 2014 Armin Biere JKU Linz
c gcc -Wall -Wextra -DNDEBUG -O3 -fno-strict-aliasing
c
c using 2 as default phase
c
c parsing <stdin>
c parsed header 'p cnf 100 425'
c initialized 100 variables
c found 425 non trivial clauses
c
c random number generator seed 0
c 
c  seconds     variables   original    learned     agility
c         level        used      conflicts    limit          MB
c 
c s   0.0   0.0   100   0.0   425     0     0     0   0.0   0.0 
c 
c initial reduction limit 1000 clauses
c 
c +   0.0   9.3   100  96.0   425   100   100  1100   9.7   0.0 
c R   0.0   9.3   100  96.0   425   102   102  1100  10.0   0.0 
c 1   0.0   9.1   100  96.0   425   123   123  1100  11.6   0.0 
c 
c  seconds     variables   original    learned     agility
c         level        used      conflicts    limit          MB
c 
s SATISFIABLE
v -1 2 -3 -4 -5 -6 -7 -8 -9 -10 11 -12 -13 -14 15 16 -17 -18 -19 -20 -21 -22 23
v -24 -25 -26 27 28 -29 30 31 32 -33 -34 -35 36 37 -38 39 40 -41 42 43 44 45 46
v 47 -48 49 -50 -51 -52 -53 -54 -55 -56 57 58 -59 60 -61 62 -63 64 -65 66 67
v -68 69 70 71 72 -73 74 75 76 77 -78 79 -80 81 -82 -83 84 85 -86 -87 88 -89
v -90 91 92 93 -94 -95 -96 97 98 99 100 0
c
c 0 iterations
c 1 restarts
c 0 failed literals
c 123 conflicts
c 168 decisions
c 0 fixed variables
c 941 learned literals
c 14.7% deleted literals
c 4227 propagations
c 12620 visits
c 96.0% variables used
c 0.0 seconds in library
c 2.1 megaprops/second
c 6.3 megavisits/second
c probing 0.0 seconds 50%
c 1 simplifications
c 0 reductions
c 0.0 MB recycled
c 0.0 MB maximally allocated
c 0.002000 seconds total run time
